n=16;
m=79;
ciudades=[|13, 9
|4, 11
|14, 6
|5, 1
|1, 4
|0, 7
|10, 16
|12, 7
|15, 7
|8, 12
|3, 8
|5, 6
|14, 1
|0, 5
|1, 1
|5, 16
|3, 7
|4, 16
|16, 1
|15, 5
|3, 0
|1, 0
|9, 0
|8, 13
|8, 16
|4, 0
|5, 14
|3, 10
|3, 12
|4, 15
|5, 11
|13, 15
|7, 0
|12, 13
|12, 12
|7, 15
|12, 8
|2, 3
|16, 9
|2, 11
|10, 8
|15, 4
|15, 10
|12, 10
|15, 12
|2, 2
|9, 2
|10, 14
|1, 11
|12, 6
|6, 4
|10, 5
|11, 15
|6, 6
|16, 16
|7, 3
|5, 5
|6, 0
|11, 10
|13, 7
|13, 14
|14, 0
|1, 5
|8, 11
|2, 9
|11, 14
|15, 9
|1, 12
|0, 1
|7, 12
|13, 11
|0, 11
|6, 11
|13, 5
|8, 7
|15, 2
|14, 9
|2, 12
|6, 15|];